# Objective value = 21
x0,1_12 0
x0,1_17 0
x0,1_24 0
x0,1_27 1
x0,1_28 0
x0,1_29 0
x0,1_36 0
x0,1_40 0
x0,1_41 0
x0,1_46 0
x0,1_53 0
x0,1_55 0
x0,1_64 0
x0,1_67 0
x0,1_70 0
x0,1_81 0
x0,1_82 0
x0,1_91 0
x0,1_108 0
x0,1_110 0
x0,1_137 0
x0,2_12 0
x0,2_17 0
x0,2_24 0
x0,2_27 0
x0,2_28 0
x0,2_29 0
x0,2_36 0
x0,2_40 0
x0,2_41 0
x0,2_46 0
x0,2_53 0
x0,2_55 1
x0,2_64 0
x0,2_67 0
x0,2_70 0
x0,2_81 0
x0,2_82 0
x0,2_91 0
x0,2_108 0
x0,2_110 0
x0,2_137 0
x0,3_12 0
x0,3_17 0
x0,3_24 0
x0,3_27 0
x0,3_28 0
x0,3_29 0
x0,3_36 0
x0,3_40 0
x0,3_41 0
x0,3_46 0
x0,3_53 0
x0,3_55 0
x0,3_64 0
x0,3_67 1
x0,3_70 0
x0,3_81 0
x0,3_82 0
x0,3_91 0
x0,3_108 0
x0,3_110 0
x0,3_137 0
x0,4_12 0
x0,4_17 0
x0,4_24 0
x0,4_27 0
x0,4_28 0
x0,4_29 0
x0,4_36 0
x0,4_40 0
x0,4_41 0
x0,4_46 0
x0,4_53 0
x0,4_55 0
x0,4_64 0
x0,4_67 0
x0,4_70 0
x0,4_81 0
x0,4_82 0
x0,4_91 1
x0,4_108 0
x0,4_110 0
x0,4_137 0
x0,5_12 0
x0,5_17 0
x0,5_24 0
x0,5_27 0
x0,5_28 0
x0,5_29 0
x0,5_36 0
x0,5_40 0
x0,5_41 0
x0,5_46 0
x0,5_53 0
x0,5_55 0
x0,5_64 0
x0,5_67 0
x0,5_70 0
x0,5_81 0
x0,5_82 0
x0,5_91 0
x0,5_108 0
x0,5_110 0
x0,5_137 0
x0,6_12 0
x0,6_17 0
x0,6_24 0
x0,6_27 0
x0,6_28 0
x0,6_29 0
x0,6_36 0
x0,6_40 0
x0,6_41 0
x0,6_46 0
x0,6_53 0
x0,6_55 0
x0,6_64 0
x0,6_67 0
x0,6_70 0
x0,6_81 0
x0,6_82 0
x0,6_91 0
x0,6_108 1
x0,6_110 0
x0,6_137 0
x0,7_12 0
x0,7_17 0
x0,7_24 0
x0,7_27 0
x0,7_28 0
x0,7_29 0
x0,7_36 0
x0,7_40 0
x0,7_41 0
x0,7_46 0
x0,7_53 0
x0,7_55 0
x0,7_64 0
x0,7_67 0
x0,7_70 0
x0,7_81 0
x0,7_82 0
x0,7_91 0
x0,7_108 0
x0,7_110 0
x0,7_137 1
x1,2_12 0
x1,2_17 0
x1,2_24 0
x1,2_27 0
x1,2_28 1
x1,2_29 0
x1,2_36 0
x1,2_40 0
x1,2_41 0
x1,2_46 0
x1,2_53 0
x1,2_55 0
x1,2_64 0
x1,2_67 0
x1,2_70 0
x1,2_81 0
x1,2_82 0
x1,2_91 0
x1,2_108 0
x1,2_110 0
x1,2_137 0
x1,3_12 0
x1,3_17 0
x1,3_24 0
x1,3_27 0
x1,3_28 0
x1,3_29 0
x1,3_36 0
x1,3_40 0
x1,3_41 0
x1,3_46 0
x1,3_53 0
x1,3_55 0
x1,3_64 0
x1,3_67 0
x1,3_70 0
x1,3_81 0
x1,3_82 0
x1,3_91 0
x1,3_108 0
x1,3_110 0
x1,3_137 0
x1,4_12 0
x1,4_17 0
x1,4_24 0
x1,4_27 0
x1,4_28 0
x1,4_29 0
x1,4_36 0
x1,4_40 0
x1,4_41 0
x1,4_46 0
x1,4_53 0
x1,4_55 0
x1,4_64 1
x1,4_67 0
x1,4_70 0
x1,4_81 0
x1,4_82 0
x1,4_91 0
x1,4_108 0
x1,4_110 0
x1,4_137 0
x1,5_12 0
x1,5_17 0
x1,5_24 0
x1,5_27 0
x1,5_28 0
x1,5_29 0
x1,5_36 0
x1,5_40 0
x1,5_41 0
x1,5_46 0
x1,5_53 0
x1,5_55 0
x1,5_64 0
x1,5_67 0
x1,5_70 0
x1,5_81 0
x1,5_82 0
x1,5_91 0
x1,5_108 0
x1,5_110 0
x1,5_137 0
x1,6_12 0
x1,6_17 0
x1,6_24 0
x1,6_27 0
x1,6_28 0
x1,6_29 0
x1,6_36 0
x1,6_40 0
x1,6_41 0
x1,6_46 0
x1,6_53 0
x1,6_55 0
x1,6_64 0
x1,6_67 0
x1,6_70 0
x1,6_81 1
x1,6_82 0
x1,6_91 0
x1,6_108 0
x1,6_110 0
x1,6_137 0
x1,7_12 0
x1,7_17 0
x1,7_24 0
x1,7_27 0
x1,7_28 0
x1,7_29 0
x1,7_36 0
x1,7_40 0
x1,7_41 0
x1,7_46 0
x1,7_53 0
x1,7_55 0
x1,7_64 0
x1,7_67 0
x1,7_70 0
x1,7_81 0
x1,7_82 0
x1,7_91 0
x1,7_108 0
x1,7_110 1
x1,7_137 0
x2,3_12 1
x2,3_17 0
x2,3_24 0
x2,3_27 0
x2,3_28 0
x2,3_29 0
x2,3_36 0
x2,3_40 0
x2,3_41 0
x2,3_46 0
x2,3_53 0
x2,3_55 0
x2,3_64 0
x2,3_67 0
x2,3_70 0
x2,3_81 0
x2,3_82 0
x2,3_91 0
x2,3_108 0
x2,3_110 0
x2,3_137 0
x2,4_12 0
x2,4_17 0
x2,4_24 0
x2,4_27 0
x2,4_28 0
x2,4_29 0
x2,4_36 1
x2,4_40 0
x2,4_41 0
x2,4_46 0
x2,4_53 0
x2,4_55 0
x2,4_64 0
x2,4_67 0
x2,4_70 0
x2,4_81 0
x2,4_82 0
x2,4_91 0
x2,4_108 0
x2,4_110 0
x2,4_137 0
x2,5_12 0
x2,5_17 0
x2,5_24 0
x2,5_27 0
x2,5_28 0
x2,5_29 0
x2,5_36 0
x2,5_40 0
x2,5_41 0
x2,5_46 0
x2,5_53 0
x2,5_55 0
x2,5_64 0
x2,5_67 0
x2,5_70 0
x2,5_81 0
x2,5_82 0
x2,5_91 0
x2,5_108 0
x2,5_110 0
x2,5_137 0
x2,6_12 0
x2,6_17 0
x2,6_24 0
x2,6_27 0
x2,6_28 0
x2,6_29 0
x2,6_36 0
x2,6_40 0
x2,6_41 0
x2,6_46 0
x2,6_53 1
x2,6_55 0
x2,6_64 0
x2,6_67 0
x2,6_70 0
x2,6_81 0
x2,6_82 0
x2,6_91 0
x2,6_108 0
x2,6_110 0
x2,6_137 0
x2,7_12 0
x2,7_17 0
x2,7_24 0
x2,7_27 0
x2,7_28 0
x2,7_29 0
x2,7_36 0
x2,7_40 0
x2,7_41 0
x2,7_46 0
x2,7_53 0
x2,7_55 0
x2,7_64 0
x2,7_67 0
x2,7_70 0
x2,7_81 0
x2,7_82 1
x2,7_91 0
x2,7_108 0
x2,7_110 0
x2,7_137 0
x3,4_12 0
x3,4_17 0
x3,4_24 1
x3,4_27 0
x3,4_28 0
x3,4_29 0
x3,4_36 0
x3,4_40 0
x3,4_41 0
x3,4_46 0
x3,4_53 0
x3,4_55 0
x3,4_64 0
x3,4_67 0
x3,4_70 0
x3,4_81 0
x3,4_82 0
x3,4_91 0
x3,4_108 0
x3,4_110 0
x3,4_137 0
x3,5_12 0
x3,5_17 0
x3,5_24 0
x3,5_27 0
x3,5_28 0
x3,5_29 0
x3,5_36 0
x3,5_40 1
x3,5_41 0
x3,5_46 0
x3,5_53 0
x3,5_55 0
x3,5_64 0
x3,5_67 0
x3,5_70 0
x3,5_81 0
x3,5_82 0
x3,5_91 0
x3,5_108 0
x3,5_110 0
x3,5_137 0
x3,6_12 0
x3,6_17 0
x3,6_24 0
x3,6_27 0
x3,6_28 0
x3,6_29 0
x3,6_36 0
x3,6_40 0
x3,6_41 1
x3,6_46 0
x3,6_53 0
x3,6_55 0
x3,6_64 0
x3,6_67 0
x3,6_70 0
x3,6_81 0
x3,6_82 0
x3,6_91 0
x3,6_108 0
x3,6_110 0
x3,6_137 0
x3,7_12 0
x3,7_17 0
x3,7_24 0
x3,7_27 0
x3,7_28 0
x3,7_29 0
x3,7_36 0
x3,7_40 0
x3,7_41 0
x3,7_46 0
x3,7_53 0
x3,7_55 0
x3,7_64 0
x3,7_67 0
x3,7_70 1
x3,7_81 0
x3,7_82 0
x3,7_91 0
x3,7_108 0
x3,7_110 0
x3,7_137 0
x4,5_12 0
x4,5_17 0
x4,5_24 0
x4,5_27 0
x4,5_28 0
x4,5_29 0
x4,5_36 0
x4,5_40 0
x4,5_41 0
x4,5_46 0
x4,5_53 0
x4,5_55 0
x4,5_64 0
x4,5_67 0
x4,5_70 0
x4,5_81 0
x4,5_82 0
x4,5_91 0
x4,5_108 0
x4,5_110 0
x4,5_137 0
x4,6_12 0
x4,6_17 1
x4,6_24 0
x4,6_27 0
x4,6_28 0
x4,6_29 0
x4,6_36 0
x4,6_40 0
x4,6_41 0
x4,6_46 0
x4,6_53 0
x4,6_55 0
x4,6_64 0
x4,6_67 0
x4,6_70 0
x4,6_81 0
x4,6_82 0
x4,6_91 0
x4,6_108 0
x4,6_110 0
x4,6_137 0
x4,7_12 0
x4,7_17 0
x4,7_24 0
x4,7_27 0
x4,7_28 0
x4,7_29 0
x4,7_36 0
x4,7_40 0
x4,7_41 0
x4,7_46 1
x4,7_53 0
x4,7_55 0
x4,7_64 0
x4,7_67 0
x4,7_70 0
x4,7_81 0
x4,7_82 0
x4,7_91 0
x4,7_108 0
x4,7_110 0
x4,7_137 0
x5,6_12 0
x5,6_17 0
x5,6_24 0
x5,6_27 0
x5,6_28 0
x5,6_29 0
x5,6_36 0
x5,6_40 0
x5,6_41 0
x5,6_46 0
x5,6_53 0
x5,6_55 0
x5,6_64 0
x5,6_67 0
x5,6_70 0
x5,6_81 0
x5,6_82 0
x5,6_91 0
x5,6_108 0
x5,6_110 0
x5,6_137 0
x5,7_12 0
x5,7_17 0
x5,7_24 0
x5,7_27 0
x5,7_28 0
x5,7_29 0
x5,7_36 0
x5,7_40 0
x5,7_41 0
x5,7_46 0
x5,7_53 0
x5,7_55 0
x5,7_64 0
x5,7_67 0
x5,7_70 0
x5,7_81 0
x5,7_82 0
x5,7_91 0
x5,7_108 0
x5,7_110 0
x5,7_137 0
x6,7_12 0
x6,7_17 0
x6,7_24 0
x6,7_27 0
x6,7_28 0
x6,7_29 1
x6,7_36 0
x6,7_40 0
x6,7_41 0
x6,7_46 0
x6,7_53 0
x6,7_55 0
x6,7_64 0
x6,7_67 0
x6,7_70 0
x6,7_81 0
x6,7_82 0
x6,7_91 0
x6,7_108 0
x6,7_110 0
x6,7_137 0
p0 0
p1 27
p2 55
p3 67
p4 91
p5 107
p6 108
p7 137
